84547.34
92 91 90 89 88 87 86 85 84 83 82 81 80 79 78 77 76 75 74 73 72 71 70 69 68 67 66 65 64 63 62 61 60 59 58 57 56 55 54 53 52 51 50 49 48 47 46 45 44 43 41 42 40 39 38 37 33 35 34 36 29 28 27 26 25 31 32 24 23 30 206 214 213 205 204 212 211 210 203 202 200 209 201 208 207 199 153 152 151 150 154 155 159 158 157 156 149 148 145 161 160 144 143 147 146 142 141 139 140 138 137 136 135 134 133 162 164 166 168 170 172 174 176 175 173 171 169 167 165 163 132 177 131 130 129 179 128 125 124 123 126 127 122 121 119 120 118 117 116 115 114 113 186 188 190 192 194 196 198 197 195 193 191 189 187 185 184 183 180 181 182 178 215 223 224 217 216 225 0 218 219 1 2 220 221 3 4 222 12 5 6 14 13 7 8 15 19 21 22 20 17 9 10 16 18 11 104 106 108 110 112 111 109 107 105 103 102 101 100 99 98 97 96 95 94 93